
   AbsCon 1.41 (January, 2014) - defaultConfiguration

   
   instance
        framework=CSP  name=Isomorphism-/cluster/gpg/ciaran/sip-benchmarks/benchmarks/LV/g4-/cluster/gpg/ciaran/sip-benchmarks/benchmarks/LV/g33
        parameters=/cluster/gpg/ciaran/sip-benchmarks/benchmarks/LV/g4,/cluster/gpg/ciaran/sip-benchmarks/benchmarks/LV/g33

   loading variables...
        nbVariables=10  nbDomainTypes=1  nbTotalValues=1010  domainSizes=(101:10)
          =>  wckTime=0.181  cpuTime=0.284  mem=8M731

   loading objectives...

   loading constraints...
        nbConstraints=46  nbSpecificConstraints=1  nbExtensionStructures=(1,shared:44)  nbConflictsStructures=(1,shared:44,unbuilt:1)
        degrees=(10:10)  arities=(2:45)(10:1)  types=(AllDifferent:1)(ConstraintHardExtensionV-Bits:45)
          =>  wckTime=0.213  cpuTime=0.316  mem=10M319

   INFO : <!-- Start saving the XML representation -->

   INFO : <!-- Stop saving the XML representation of g33.xml -->

   Solver SolverBacktrack being built... 
          =>  wckTime=0.371  cpuTime=0.443  mem=16M728

   
   search
        run=0  nbConstraintChecks=0  depth=(min:0,max:0,avg:1)  nbEffectivePropagations=315  nbRevisions=3272  nbUselessRevisions=2957
        nbAssignments=101  nbFailedAssignments=101  nbBacktracks=1  nbVisitedNodes=202  nbRestartNogoods=0
          =>  wckTime=0.081  cpuTime=0.521  mem=13M384

   
   global
        nbConstraintChecks=0  nbEffectivePropagations=315  nbRevisions=3272  nbUselessRevisions=2957  nbRestartNogoods=0  solvingWckTime=0.082
        expiredTime=no  totalExploration=yes  nbFoundSolutions=0  Stop=FULL_EXPLORATION
          =>  wckTime=0.453  cpuTime=0.522  mem=13M384

s UNSATISFIABLE
d NODES 101

   totalWckTime=0.337  totalCpuTime=0.522
